;; Autogenerated SMTLib file by Datagen.
;; DO NOT MODIFY.

(set-logic ALL)

(define-fun min2 ((x Int) (y Int)) Int
    (ite (< x y) x y))

(define-fun max2 ((x Int) (y Int)) Int
    (ite (> x y) x y))

(define-fun-rec pow ((x Int) (n Int)) Int
    (ite (= n 0)
        1
        (* x (pow x (- n 1)))))

(define-fun first (
    ( p Int )
    ) Bool

    (and (= (mod p 2) 0) )
)

(define-fun second (
    ( p Int )
    ) Bool

    (and (= (mod (- p) 2) 0) )
)

; Check if first is a subset of second
(push)
(assert (forall (
    ( p Int )
    )

    ( => (first
        p
        )

        (second
        p
        )
    )
))
(check-sat)
(pop)

; Check if second is a subset of first
(push)
(assert (forall (
    ( p Int )
    )

    ( => (first
        p
        )

        (second
        p
        )
    )
))
(check-sat)
(pop)

